Version identifier: 22.1.1.0 | 2022-11-28 | 9160aff4d
CPXPARAM_ClockType                               1
CPXPARAM_Read_DataCheck                          1
CPXPARAM_Threads                                 1
CPXPARAM_TimeLimit                               7200
CPXPARAM_MIP_Tolerances_AbsMIPGap                0
CPXPARAM_MIP_Tolerances_MIPGap                   0
CPXPARAM_MIP_Tolerances_Integrality              0
Tried aggregator 2 times.
MIP Presolve eliminated 1212 rows and 0 columns.
MIP Presolve modified 2184 coefficients.
Aggregator did 900 substitutions.
Reduced MIP has 3498 rows, 2250 columns, and 9030 nonzeros.
Reduced MIP has 2250 binaries, 0 generals, 0 SOSs, and 0 indicators.
Presolve time = 0.03 sec. (13.59 ticks)
Probing time = 0.00 sec. (2.36 ticks)
Tried aggregator 1 time.
Detecting symmetries...
MIP Presolve eliminated 308 rows and 15 columns.
Reduced MIP has 3190 rows, 2235 columns, and 8103 nonzeros.
Reduced MIP has 2235 binaries, 0 generals, 0 SOSs, and 0 indicators.
Presolve time = 0.02 sec. (9.83 ticks)
Probing time = 0.01 sec. (2.29 ticks)
Clique table members: 6146.
MIP emphasis: balance optimality and feasibility.
MIP search method: dynamic search.
Parallel mode: none, using 1 thread.
Root relaxation solution time = 0.13 sec. (99.07 ticks)

        Nodes                                         Cuts/
   Node  Left     Objective  IInf  Best Integer    Best Bound    ItCnt     Gap

      0     0      300.0000   780                    300.0000     1603         
      0     0      300.0000   857                   Cuts: 234     2018         
      0     0      300.0000   892               ZeroHalf: 237     2932         
      0     0      300.0000   722                ZeroHalf: 15     3092         
      0     0      300.0000   718               ZeroHalf: 175     3272         
      0     0      300.0000   814               ZeroHalf: 203     3758         
      0     2      300.0000   777                    300.0000     4011         
Elapsed time = 2.62 sec. (2025.07 ticks, tree = 0.01 MB, solutions = 0)
      6     8      300.0000   716                    300.0000     6591         
     11    13      300.0000   739                    300.0000     9093         
     17    17      299.6000   997                    300.0000    12514         
     26    22      300.0000   731                    300.0000    15232         
     37    33      300.0000   678                    300.0000    17426         
     43    35      299.6000   926                    300.0000    20719         
     49    35      299.6667   958                    300.0000    23177         
     56    42      296.0000   846                    300.0000    25835         
     61    47      290.8889   931                    300.0000    28279         
     78    44      300.0000   743                    300.0000    37343         
Elapsed time = 6.65 sec. (5407.98 ticks, tree = 0.26 MB, solutions = 0)
     94    44      300.0000   740                    300.0000    45251         
    111    43    infeasible                          300.0000    51932         
*   129    41      integral     0      250.0000      300.0000    58939   20.00%
    131    41      300.0000   887      250.0000      300.0000    59254   20.00%
    151    45      300.0000   728      250.0000      300.0000    68549   20.00%
    168    50      299.7143  1055      250.0000      300.0000    77811   20.00%
    187    53      297.0000   851      250.0000      300.0000    85467   20.00%
    203    55      294.0000   833      250.0000      300.0000    94364   20.00%
    220    56      300.0000   746      250.0000      300.0000   101274   20.00%
    255    67      300.0000   771      250.0000      300.0000   108929   20.00%
    285    83    infeasible            250.0000      300.0000   116912   20.00%
Elapsed time = 18.79 sec. (15361.05 ticks, tree = 1.53 MB, solutions = 1)
    310    92      270.0000   604      250.0000      300.0000   124705   20.00%
    332    94    infeasible            250.0000      300.0000   133509   20.00%
    347    91      300.0000   779      250.0000      300.0000   140293   20.00%
    369    99    infeasible            250.0000      300.0000   147692   20.00%
    383   101      299.7857  1061      250.0000      300.0000   155940   20.00%
    406   108      300.0000   800      250.0000      300.0000   163428   20.00%
*   418     1      integral     0      300.0000      300.0000   167897    0.00%

Zero-half cuts applied:  140

Root node processing (before b&c):
  Real time             =    2.61 sec. (2015.54 ticks)
Sequential b&c:
  Real time             =   23.90 sec. (19821.98 ticks)
                          ------------
Total (root+branch&cut) =   26.51 sec. (21837.52 ticks)
Solution is feasible.

---------------------
@@@ MIP_optimal
>>> Benchmark flat150-4.cnf k 2 OPT 300 TimeCost 27.071428060531616 TimeSolve 26.6361403465271 TimeRead 0.004008769989013672 TimeTrans 0.43127894401550293
